1 -1 2 0
1 -1 -3 0
1 4 5 0
1 -4 6 0
1 2 7 0
1 2 8 0
1 -2 9 0
1 2 10 0
1 11 -7 0
1 12 -8 0
1 13 -14 0
1 -15 -9 0
1 7 -16 0
1 -14 -17 0
1 -14 -8 0
1 -14 -18 0
1 -17 19 0
1 20 13 0
1 21 22 0
1 22 21 0
1 22 11 0
1 22 -23 0
1 -24 -21 0
1 -24 -22 0
1 -25 21 0
1 25 -26 0
1 18 27 0
1 -18 -28 0
1 29 30 0
1 -31 29 0
1 -32 -33 0
1 32 -34 0
1 35 -32 0
1 35 29 0
1 6 36 0
1 -5 -37 0
1 5 -38 0
1 -5 -11 0
1 5 -39 0
1 -40 -41 0
1 -42 -40 0
1 -42 -6 0
1 -42 34 0
1 -43 44 0
1 -43 40 0
1 -43 -45 0
1 -46 -44 0
1 46 -33 0
1 -3 37 0
1 47 7 0
1 47 -48 0
1 -16 -15 0
1 37 16 0
1 -48 49 0
1 -48 50 0
1 41 45 0
1 -51 52 0
1 51 -39 0
1 53 37 0
1 53 -54 0
1 -28 26 0
1 -26 55 0
1 52 -56 0
1 54 -57 0
1 54 58 0
1 -54 26 0
1 -54 -59 0
1 -60 61 0
1 -62 60 0
1 -55 -63 0
1 -55 64 0
1 65 60 0
1 -66 63 0
1 -66 15 0
1 66 -62 0
1 -67 56 0
1 67 -68 0
1 69 65 0
1 -69 55 0
1 -64 -61 0
1 -70 -55 0
1 -71 72 0
1 73 -60 0
1 61 74 0
1 -75 -76 0
1 -77 -78 0
1 79 -80 0
1 81 80 0
1 -82 83 0
1 82 -84 0
1 82 -85 0
1 -76 -86 0
1 -76 77 0
1 76 -79 0
1 87 77 0
1 87 -88 0
1 89 90 0
1 -84 91 0
1 92 82 0
1 93 -82 0
1 94 84 0
1 94 -90 0
1 -90 33 0
1 95 -84 0
1 -95 89 0
1 -91 85 0
1 33 -32 0
1 33 -46 0
1 96 -97 0
1 -98 99 0
1 -100 101 0
1 -100 -50 0
1 102 -98 0
1 102 -103 0
1 -102 -104 0
1 -105 -93 0
1 105 -101 0
1 -106 103 0
1 44 -46 0
1 -107 -100 0
1 107 -108 0
1 107 109 0
1 107 -110 0
1 -107 50 0
1 -111 -112 0
1 -110 -31 0
1 110 -113 0
1 108 -114 0
1 115 -44 0
1 -115 103 0
1 115 45 0
1 -115 101 0
1 -115 -116 0
1 117 -37 0
1 -49 -23 0
1 -118 110 0
1 -58 -111 0
1 119 -42 0
1 -120 107 0
1 109 -46 0
1 -109 -121 0
1 -109 -116 0
1 -121 -117 0
1 56 122 0
1 57 123 0
1 57 66 0
1 -57 120 0
1 -124 -123 0
1 -124 -120 0
1 68 125 0
1 -68 -122 0
1 -68 126 0
1 -127 -68 0
1 126 56 0
1 123 57 0
1 -123 58 0
1 -128 -129 0
1 -130 -27 0
1 131 127 0
1 131 -132 0
1 -133 -128 0
1 125 134 0
1 -72 -135 0
1 136 -131 0
1 -135 137 0
1 135 138 0
1 139 -140 0
1 -141 -72 0
1 141 142 0
1 141 137 0
1 143 144 0
1 144 -145 0
1 -146 147 0
1 -147 -135 0
1 148 -149 0
1 149 -150 0
1 149 146 0
1 -78 151 0
1 -152 153 0
1 -154 -80 0
1 -151 -154 0
1 -151 155 0
1 -156 157 0
1 -156 158 0
1 -159 160 0
1 159 -156 0
1 -159 161 0
1 159 162 0
1 159 152 0
1 -155 163 0
1 -155 -164 0
1 -155 -158 0
1 -88 165 0
1 88 -166 0
1 -167 168 0
1 169 -97 0
1 169 170 0
1 -164 -154 0
1 171 -163 0
1 171 -164 0
1 97 166 0
1 -172 -168 0
1 172 -86 0
1 168 -173 0
1 -174 -175 0
1 -166 97 0
1 166 172 0
1 166 -85 0
1 165 88 0
1 176 -83 0
1 177 178 0
1 -177 168 0
1 -175 -106 0
1 179 174 0
1 -179 -180 0
1 -179 -86 0
1 181 179 0
1 83 -182 0
1 83 -176 0
1 83 -179 0
1 86 -99 0
1 -183 -99 0
1 183 -182 0
1 -184 -185 0
1 186 -180 0
1 -187 180 0
1 -187 175 0
1 187 94 0
1 -188 103 0
1 188 186 0
1 112 -187 0
1 116 -189 0
1 -116 -187 0
1 190 191 0
1 -190 192 0
1 192 -68 0
1 192 193 0
1 -191 114 0
1 104 -112 0
1 104 -194 0
1 -104 -116 0
1 -189 190 0
1 -189 -114 0
1 189 -192 0
1 -195 109 0
1 195 -120 0
1 196 197 0
1 198 191 0
1 198 -199 0
1 -200 201 0
1 200 113 0
1 -201 -134 0
1 -201 -202 0
1 -201 203 0
1 204 205 0
1 197 -206 0
1 134 123 0
1 -207 -208 0
1 -207 -125 0
1 -203 -208 0
1 203 -207 0
1 -208 -140 0
1 -208 209 0
1 -208 210 0
1 211 -209 0
1 -199 -134 0
1 -199 212 0
1 -213 200 0
1 213 214 0
1 -215 143 0
1 -215 -216 0
1 209 217 0
1 -209 -129 0
1 -210 -218 0
1 210 219 0
1 140 -220 0
1 -140 -221 0
1 -140 139 0
1 140 211 0
1 222 127 0
1 222 223 0
1 -216 222 0
1 -219 -212 0
1 -219 207 0
1 -217 209 0
1 -217 -219 0
1 224 141 0
1 225 -145 0
1 -226 223 0
1 -221 -227 0
1 -221 -225 0
1 218 -227 0
1 228 -149 0
1 229 230 0
1 -231 142 0
1 -142 -225 0
1 -232 233 0
1 234 -235 0
1 -234 236 0
1 235 149 0
1 235 -237 0
1 -238 239 0
1 -238 -240 0
1 230 -241 0
1 242 -243 0
1 -244 243 0
1 -245 246 0
1 245 247 0
1 -245 248 0
1 246 249 0
1 250 -251 0
1 243 252 0
1 253 -245 0
1 -158 -254 0
1 -161 255 0
1 157 -156 0
1 157 -256 0
1 -257 256 0
1 -257 159 0
1 254 -257 0
1 254 -161 0
1 254 258 0
1 254 158 0
1 247 259 0
1 247 249 0
1 -248 260 0
1 -162 256 0
1 -160 -97 0
1 -261 254 0
1 261 262 0
1 -261 -263 0
1 -264 256 0
1 265 266 0
1 267 -268 0
1 -267 269 0
1 270 268 0
1 271 268 0
1 -272 -273 0
1 -268 178 0
1 268 -267 0
1 269 -266 0
1 -274 183 0
1 -173 275 0
1 -173 183 0
1 -173 -276 0
1 -277 86 0
1 278 -279 0
1 -278 -183 0
1 -276 271 0
1 276 -280 0
1 -276 182 0
1 276 -277 0
1 -276 274 0
1 -275 280 0
1 -275 182 0
1 -275 276 0
1 -281 -282 0
1 -281 270 0
1 -282 -283 0
1 -182 -279 0
1 182 -284 0
1 -285 279 0
1 -285 286 0
1 287 275 0
1 -287 -288 0
1 -287 -289 0
1 287 -185 0
1 -284 -290 0
1 -284 -168 0
1 -286 280 0
1 286 -166 0
1 -291 -195 0
1 292 -198 0
1 292 293 0
1 -294 -279 0
1 295 -292 0
1 295 194 0
1 -289 -296 0
1 289 280 0
1 289 294 0
1 289 -297 0
1 288 -298 0
1 -205 -295 0
1 205 -293 0
1 205 104 0
1 -194 -205 0
1 194 299 0
1 194 -300 0
1 194 -301 0
1 194 193 0
1 302 293 0
1 -302 -303 0
1 301 -304 0
1 293 -180 0
1 299 305 0
1 299 -306 0
1 299 297 0
1 -206 204 0
1 307 308 0
1 -308 -309 0
1 -308 -293 0
1 309 -307 0
1 310 -311 0
1 -310 -312 0
1 313 314 0
1 -313 206 0
1 313 -307 0
1 -313 193 0
1 -315 -199 0
1 -315 -316 0
1 212 -219 0
1 312 -311 0
1 312 -310 0
1 -312 317 0
1 312 -217 0
1 311 -309 0
1 311 -225 0
1 -311 318 0
1 311 -312 0
1 -202 -319 0
1 -202 320 0
1 -318 -321 0
1 322 -316 0
1 322 -307 0
1 -316 323 0
1 321 -202 0
1 -321 -323 0
1 -320 -324 0
1 -320 -318 0
1 -319 -221 0
1 -319 214 0
1 -325 326 0
1 -325 327 0
1 328 -312 0
1 -329 -330 0
1 214 330 0
1 -214 -331 0
1 332 325 0
1 227 333 0
1 -227 221 0
1 326 334 0
1 326 -231 0
1 -327 333 0
1 334 319 0
1 -334 239 0
1 334 335 0
1 335 -319 0
1 335 216 0
1 -333 -327 0
1 336 -337 0
1 -336 332 0
1 -336 -330 0
1 -336 338 0
1 240 142 0
1 241 -339 0
1 241 -230 0
1 -241 240 0
1 -239 339 0
1 -239 340 0
1 239 341 0
1 342 -340 0
1 -342 343 0
1 342 -239 0
1 -342 238 0
1 339 344 0
1 345 -346 0
1 -236 345 0
1 236 230 0
1 347 -348 0
1 349 350 0
1 349 239 0
1 -346 351 0
1 346 -352 0
1 -353 -349 0
1 -353 -354 0
1 237 -355 0
1 -356 -353 0
1 -354 -357 0
1 -354 -358 0
1 354 359 0
1 -360 -361 0
1 360 -362 0
1 -363 -364 0
1 -365 366 0
1 -367 -365 0
1 -367 -368 0
1 -368 -243 0
1 255 -243 0
1 366 -369 0
1 -370 -257 0
1 -370 371 0
1 -370 -366 0
1 -372 -373 0
1 361 -366 0
1 362 255 0
1 -362 363 0
1 -374 371 0
1 374 -162 0
1 -375 262 0
1 -260 371 0
1 260 -376 0
1 -258 371 0
1 258 248 0
1 259 248 0
1 259 376 0
1 -377 -259 0
1 -377 378 0
1 -377 375 0
1 376 259 0
1 376 243 0
1 -379 -380 0
1 -266 381 0
1 -382 383 0
1 -378 383 0
1 -384 385 0
1 283 -380 0
1 386 280 0
1 -386 282 0
1 387 388 0
1 -388 378 0
1 -389 256 0
1 -390 391 0
1 -390 392 0
1 -393 -394 0
1 393 395 0
1 393 -392 0
1 396 388 0
1 396 -282 0
1 -397 -392 0
1 -398 -388 0
1 -398 399 0
1 399 400 0
1 -399 -401 0
1 399 402 0
1 403 -290 0
1 -403 -396 0
1 -400 -396 0
1 -402 -400 0
1 290 -404 0
1 405 286 0
1 -296 -406 0
1 -296 -407 0
1 296 -408 0
1 -298 -409 0
1 -298 -410 0
1 -410 406 0
1 410 297 0
1 -411 -412 0
1 411 -405 0
1 411 -413 0
1 -297 414 0
1 -297 -305 0
1 -297 -410 0
1 297 -408 0
1 -297 303 0
1 -415 416 0
1 -417 -408 0
1 417 -418 0
1 -408 317 0
1 -419 -415 0
1 420 -286 0
1 -420 421 0
1 -409 421 0
1 304 416 0
1 -422 423 0
1 424 425 0
1 -416 426 0
1 427 422 0
1 -427 428 0
1 -427 -304 0
1 429 430 0
1 429 431 0
1 323 313 0
1 428 432 0
1 -433 -319 0
1 -434 -435 0
1 -434 -433 0
1 434 -324 0
1 -434 436 0
1 -434 317 0
1 -434 -437 0
1 -438 317 0
1 425 -303 0
1 -439 322 0
1 -436 440 0
1 441 -442 0
1 -441 -443 0
1 441 436 0
1 -432 -444 0
1 445 433 0
1 445 337 0
1 445 -446 0
1 -445 -447 0
1 -314 313 0
1 -448 -449 0
1 448 446 0
1 -448 447 0
1 -450 -325 0
1 450 445 0
1 451 442 0
1 -451 444 0
1 451 -452 0
1 443 -337 0
1 -453 454 0
1 442 -455 0
1 -456 447 0
1 -344 -331 0
1 -344 336 0
1 338 -336 0
1 457 458 0
1 -459 -460 0
1 -461 -462 0
1 461 -463 0
1 -461 -338 0
1 -464 -465 0
1 -464 -328 0
1 -458 -466 0
1 331 -459 0
1 465 -343 0
1 -465 464 0
1 467 -464 0
1 462 468 0
1 462 469 0
1 462 -461 0
1 462 470 0
1 462 346 0
1 -462 -471 0
1 351 469 0
1 351 -346 0
1 472 -457 0
1 471 465 0
1 471 -473 0
1 -474 -462 0
1 -474 -475 0
1 -474 476 0
1 474 466 0
1 474 -459 0
1 474 460 0
1 -460 462 0
1 -477 354 0
1 477 -478 0
1 -479 -477 0
1 -480 -352 0
1 469 -359 0
1 469 -479 0
1 -469 -481 0
1 470 -477 0
1 470 -351 0
1 482 477 0
1 482 -480 0
1 483 484 0
1 485 486 0
1 487 488 0
1 -487 -350 0
1 487 -489 0
1 350 -490 0
1 491 492 0
1 490 -487 0
1 493 -356 0
1 493 -489 0
1 493 -483 0
1 358 -485 0
1 494 495 0
1 -494 -496 0
1 497 498 0
1 -499 500 0
1 -499 496 0
1 -496 -497 0
1 -496 -494 0
1 500 -496 0
1 -500 -501 0
1 502 496 0
1 502 503 0
1 502 504 0
1 505 -506 0
1 373 497 0
1 -373 -505 0
1 -498 -507 0
1 498 497 0
1 -506 -497 0
1 -508 251 0
1 508 -380 0
1 380 509 0
1 380 510 0
1 380 -379 0
1 380 -373 0
1 -511 -504 0
1 -511 -512 0
1 513 514 0
1 510 -380 0
1 -504 -371 0
1 -509 515 0
1 509 -502 0
1 516 -517 0
1 516 -513 0
1 -518 519 0
1 -518 383 0
1 392 -504 0
1 520 398 0
1 401 514 0
1 521 -407 0
1 -521 511 0
1 512 -521 0
1 512 -394 0
1 -522 523 0
1 -522 -524 0
1 -522 401 0
1 -394 390 0
1 394 402 0
1 -395 402 0
1 407 402 0
1 -525 -526 0
1 525 -391 0
1 -525 -527 0
1 -528 414 0
1 528 525 0
1 528 529 0
1 -529 -528 0
1 -526 -530 0
1 -531 -407 0
1 -414 532 0
1 414 400 0
1 414 -403 0
1 414 411 0
1 533 -411 0
1 -534 -417 0
1 -532 535 0
1 -527 -536 0
1 537 -538 0
1 537 539 0
1 537 -420 0
1 -537 530 0
1 536 -409 0
1 536 -527 0
1 -535 409 0
1 535 -540 0
1 -539 -430 0
1 -539 -403 0
1 541 539 0
1 -541 404 0
1 541 -542 0
1 540 543 0
1 540 -544 0
1 -538 -545 0
1 546 -547 0
1 -546 -548 0
1 546 -420 0
1 -548 408 0
1 431 418 0
1 -430 433 0
1 430 549 0
1 -430 550 0
1 430 418 0
1 551 440 0
1 551 410 0
1 -551 431 0
1 -552 -553 0
1 552 421 0
1 -547 -554 0
1 547 -431 0
1 -555 -556 0
1 -555 427 0
1 557 -556 0
1 -440 556 0
1 440 558 0
1 559 -560 0
1 559 561 0
1 -550 452 0
1 -549 558 0
1 -549 562 0
1 -558 563 0
1 449 -564 0
1 437 449 0
1 437 565 0
1 437 566 0
1 437 434 0
1 452 -567 0
1 565 568 0
1 -560 -427 0
1 560 -569 0
1 560 570 0
1 -566 -559 0
1 -566 571 0
1 566 -562 0
1 -566 -452 0
1 -567 -572 0
1 567 -573 0
1 574 -442 0
1 574 -560 0
1 -574 -456 0
1 -570 565 0
1 570 -575 0
1 435 452 0
1 -576 -577 0
1 -576 578 0
1 -576 579 0
1 576 580 0
1 575 577 0
1 -575 -578 0
1 -575 581 0
1 582 -583 0
1 -582 -570 0
1 584 -585 0
1 -455 435 0
1 -468 -586 0
1 580 458 0
1 -580 587 0
1 -580 331 0
1 588 -589 0
1 587 590 0
1 -585 -591 0
1 -585 -570 0
1 592 464 0
1 592 -460 0
1 -589 -593 0
1 589 -480 0
1 -594 -474 0
1 594 -460 0
1 -594 -589 0
1 -595 -468 0
1 -595 580 0
1 -595 454 0
1 595 -473 0
1 -596 442 0
1 -596 -597 0
1 596 598 0
1 -596 -599 0
1 -593 600 0
1 -473 474 0
1 475 460 0
1 -601 485 0
1 -601 476 0
1 -463 481 0
1 602 -603 0
1 -481 604 0
1 605 606 0
1 492 -607 0
1 606 608 0
1 476 605 0
1 476 -474 0
1 609 460 0
1 517 610 0
1 -611 -610 0
1 611 516 0
1 515 -612 0
1 -613 -614 0
1 -613 615 0
1 610 -616 0
1 617 -611 0
1 -618 619 0
1 618 515 0
1 614 -620 0
1 524 -612 0
1 -524 620 0
1 621 -622 0
1 -621 -373 0
1 623 624 0
1 623 625 0
1 -612 614 0
1 523 526 0
1 -625 626 0
1 627 -628 0
1 -626 629 0
1 629 630 0
1 631 -620 0
1 -530 632 0
1 -530 529 0
1 -633 -391 0
1 630 634 0
1 635 629 0
1 -635 -636 0
1 -632 -630 0
1 628 512 0
1 637 -514 0
1 -637 -638 0
1 637 639 0
1 640 -641 0
1 642 632 0
1 -642 532 0
1 -642 628 0
1 544 643 0
1 544 -644 0
1 645 646 0
1 -646 -553 0
1 -646 528 0
1 -646 554 0
1 647 -645 0
1 641 645 0
1 -641 648 0
1 -641 544 0
1 -636 635 0
1 -636 531 0
1 -636 -649 0
1 -636 640 0
1 543 539 0
1 -543 552 0
1 -543 -644 0
1 545 -539 0
1 -554 650 0
1 -554 -552 0
1 554 542 0
1 -553 -547 0
1 553 647 0
1 553 -651 0
1 -652 -543 0
1 -644 652 0
1 644 -653 0
1 -644 654 0
1 643 545 0
1 651 648 0
1 -651 655 0
1 -656 558 0
1 -656 -657 0
1 658 -652 0
1 658 -549 0
1 659 660 0
1 -654 558 0
1 654 660 0
1 654 549 0
1 -654 644 0
1 -660 -661 0
1 -660 -542 0
1 542 -541 0
1 542 -660 0
1 650 540 0
1 650 -654 0
1 657 -662 0
1 657 -663 0
1 657 -654 0
1 563 664 0
1 562 550 0
1 572 -664 0
1 -572 -542 0
1 665 -666 0
1 665 667 0
1 -668 552 0
1 -669 670 0
1 669 671 0
1 568 664 0
1 568 575 0
1 667 455 0
1 -586 -671 0
1 -586 -672 0
1 -586 -582 0
1 586 571 0
1 673 -674 0
1 -673 582 0
1 -673 -675 0
1 676 -673 0
1 -672 -667 0
1 -577 -435 0
1 577 -571 0
1 -677 -582 0
1 -677 466 0
1 -677 666 0
1 678 -571 0
1 675 -577 0
1 -675 -677 0
1 571 678 0
1 679 680 0
1 679 -681 0
1 -679 682 0
1 -598 -675 0
1 -683 590 0
1 -597 683 0
1 684 -597 0
1 684 685 0
1 -579 -597 0
1 -579 -683 0
1 583 683 0
1 686 -687 0
1 -686 -600 0
1 600 579 0
1 600 593 0
1 -600 602 0
1 -591 -600 0
1 688 -683 0
1 689 635 0
1 690 691 0
1 690 -692 0
1 693 -690 0
1 -694 -622 0
1 -695 -696 0
1 -697 -698 0
1 697 699 0
1 698 699 0
1 -698 -631 0
1 698 700 0
1 -639 -637 0
1 639 -693 0
1 639 -701 0
1 -639 -702 0
1 703 645 0
1 703 -690 0
1 -703 -702 0
1 -704 -689 0
1 -704 634 0
1 -699 -703 0
1 705 706 0
1 -705 639 0
1 -707 -708 0
1 -707 -649 0
1 -709 -701 0
1 -709 -636 0
1 -709 -710 0
1 -711 553 0
1 711 712 0
1 711 -641 0
1 711 704 0
1 710 639 0
1 708 711 0
1 -708 703 0
1 713 711 0
1 713 714 0
1 713 715 0
1 701 -715 0
1 701 -713 0
1 -648 -716 0
1 -716 717 0
1 718 712 0
1 718 -643 0
1 718 719 0
1 -712 -632 0
1 712 -709 0
1 -712 720 0
1 -719 712 0
1 -721 -712 0
1 662 721 0
1 662 -657 0
1 -722 646 0
1 -722 723 0
1 722 720 0
1 724 725 0
1 724 -726 0
1 724 663 0
1 661 -727 0
1 -661 -660 0
1 661 -542 0
1 -671 -728 0
1 729 730 0
1 -729 -670 0
1 729 -671 0
1 729 652 0
1 -653 -731 0
1 -653 666 0
1 -728 -732 0
1 670 665 0
1 -670 -729 0
1 -666 -674 0
1 -666 -733 0
1 666 734 0
1 666 735 0
1 -731 -736 0
1 733 -680 0
1 -737 -671 0
1 -737 738 0
1 -739 740 0
1 -735 -671 0
1 -682 741 0
1 -682 -742 0
1 -682 -599 0
1 -743 -744 0
1 -743 733 0
1 681 -745 0
1 -681 -733 0
1 -681 571 0
1 -742 743 0
1 -742 -738 0
1 -741 746 0
1 -741 740 0
1 -747 -744 0
1 -747 748 0
1 -749 746 0
1 749 583 0
1 -750 748 0
1 -751 -752 0
1 -751 -583 0
1 748 680 0
1 -748 -681 0
1 753 -749 0
1 -753 681 0
1 717 704 0
1 717 713 0
1 754 755 0
1 754 756 0
1 757 -758 0
1 691 759 0
1 691 -690 0
1 -691 715 0
1 -755 -715 0
1 760 759 0
1 761 708 0
1 761 -762 0
1 -763 -764 0
1 756 -765 0
1 756 758 0
1 758 -763 0
1 -762 761 0
1 766 -705 0
1 766 767 0
1 -765 758 0
1 -768 661 0
1 -769 -770 0
1 770 -769 0
1 -771 -710 0
1 772 -771 0
1 -772 -736 0
1 -714 769 0
1 -773 774 0
1 -773 -775 0
1 -773 -764 0
1 725 772 0
1 -725 -776 0
1 -776 -724 0
1 736 -771 0
1 736 772 0
1 777 -771 0
1 778 -770 0
1 779 -736 0
1 779 -780 0
1 779 781 0
1 -779 782 0
1 783 784 0
1 783 770 0
1 -783 -782 0
1 -730 728 0
1 730 -739 0
1 -730 -785 0
1 -730 653 0
1 -730 682 0
1 786 779 0
1 -786 787 0
1 -788 781 0
1 788 -789 0
1 746 -741 0
1 746 732 0
1 746 -733 0
1 790 -746 0
1 -791 792 0
1 -791 790 0
1 -791 793 0
1 -775 794 0
1 -775 -773 0
1 795 775 0
1 795 714 0
1 -796 -714 0
1 -794 -796 0
1 794 -755 0
1 797 798 0
1 -799 -775 0
1 -774 -783 0
1 -774 800 0
1 774 801 0
1 -774 714 0
1 -784 -783 0
1 784 -802 0
1 -784 -800 0
1 803 -783 0
1 -804 786 0
1 801 804 0
1 -805 762 0
1 -767 -798 0
1 -767 -803 0
1 -782 783 0
1 -780 783 0
1 780 -778 0
1 -780 787 0
1 806 -807 0
1 808 780 0
1 -808 809 0
